<number of tasks>
50

<cycle time>
1000

<order strength>
0.601


<task times>
1 588
2 304
3 234
4 465
5 195
6 321
7 479
8 131
9 32
10 104
11 28
12 102
13 82
14 33
15 503
16 107
17 22
18 277
19 165
20 340
21 196
22 77
23 192
24 275
25 111
26 240
27 74
28 276
29 208
30 166
31 95
32 378
33 123
34 92
35 159
36 88
37 210
38 41
39 225
40 89
41 111
42 190
43 523
44 110
45 72
46 513
47 166
48 251
49 380
50 161

<precedence relations>
1,5
1,7
1,19
2,9
3,6
3,7
3,8
4,6
4,19
5,11
6,10
6,12
6,13
7,15
7,25
8,13
8,14
9,13
9,14
9,15
10,16
11,17
12,18
13,23
13,25
14,19
15,21
16,21
17,21
18,21
19,20
19,27
19,32
20,22
21,23
22,25
23,24
23,26
23,27
23,28
24,29
25,35
26,32
26,39
27,31
28,30
28,31
29,34
30,33
30,35
30,37
30,39
31,38
31,45
32,35
32,36
32,38
33,40
34,44
35,41
35,42
35,43
37,45
38,50
40,50
41,46
42,47
43,48
44,49

<end>
